
Gurobi 5.6.0 (linux64) logging started Fri Feb 28 20:09:09 2014


Gurobi 5.6.0 (linux64) logging started Fri Feb 28 20:10:31 2014


Gurobi 5.6.0 (linux64) logging started Fri Feb 28 20:10:59 2014


Gurobi 5.6.0 (linux64) logging started Fri Feb 28 20:11:26 2014


Gurobi 5.6.0 (linux64) logging started Fri Feb 28 20:12:03 2014


Gurobi 5.6.0 (linux64) logging started Fri Feb 28 20:12:28 2014


Gurobi 5.6.0 (linux64) logging started Fri Feb 28 20:12:39 2014


Gurobi 5.6.0 (linux64) logging started Fri Feb 28 20:14:05 2014


Gurobi 5.6.0 (linux64) logging started Fri Feb 28 20:14:50 2014


Gurobi 5.6.0 (linux64) logging started Fri Feb 28 20:28:00 2014


Gurobi 5.6.0 (linux64) logging started Fri Feb 28 22:04:04 2014


Gurobi 5.6.0 (linux64) logging started Fri Feb 28 22:04:28 2014

